p cnf 50 75
1 26 0
1 24 0
1 8 0
2 3 0
2 10 0
2 46 0
3 17 0
3 42 0
4 8 0
4 37 0
4 22 0
5 28 0
5 13 0
5 19 0
6 35 0
6 13 0
6 23 0
7 12 0
7 44 0
7 25 0
8 31 0
9 38 0
9 37 0
9 48 0
10 25 0
10 47 0
11 43 0
11 34 0
11 14 0
12 35 0
12 50 0
13 38 0
14 46 0
14 35 0
15 32 0
15 47 0
15 40 0
16 39 0
16 47 0
16 18 0
17 27 0
17 40 0
18 30 0
18 29 0
19 27 0
19 34 0
20 28 0
20 49 0
20 45 0
21 37 0
21 45 0
21 30 0
22 25 0
22 49 0
23 36 0
23 50 0
24 32 0
24 33 0
26 48 0
26 45 0
27 42 0
28 41 0
29 44 0
29 41 0
30 38 0
31 33 0
31 44 0
32 33 0
34 48 0
36 49 0
36 46 0
39 43 0
39 41 0
40 50 0
42 43 0
g -30